benchmark/results/graph__10-1000-0.10-03_19/graph__10-1000-0.10-03_19_QuintonOs_Benders_aux.lp
\ This file has been generated by DOcplex
\ ENCODING=ISO-8859-1
\Problem name: Quinton Bounded Benders_auxiliary_sub

Minimize
 obj: 0.000946969697 pi_nr_a0 + 0.001317523057 pi_nr_a1
      + 0.000950469179 pi_nr_a2 + 0.001313171083 pi_nr_a3
      + 0.000962463908 pi_nr_a4 + 0.001576826465 pi_nr_a5
      + 0.001080908980 pi_nr_a6 + 0.000892072115 pi_nr_a7
      + 0.001024590164 pi_nr_a8 + 0.001098563300 pi_nr_a9 + pi_p_a5_a6
      + pi_p_a9_a3 + pi_p_a5_a5 - 0.052914896397 pi_d_a0_a1_proc_2
      + 1.052914896397 pi_d_a1_a0_proc_2 + 1097.486668408092 pi_d_a0_a2_proc_2
      + 1122.160489486355 pi_d_a2_a0_proc_2
      + 1102.536234943079 pi_d_a0_a3_proc_2
      + 1125.636921728609 pi_d_a3_a0_proc_2 + 582.822236988981 pi_d_a0_a5_proc_2
      + 562.968105116636 pi_d_a5_a0_proc_2 + 619.563461549815 pi_d_a0_a6_proc_2
      + 597.999036384104 pi_d_a6_a0_proc_2 + 1157.964766484658 pi_d_a0_a7_proc_2
      + 1132.965350394110 pi_d_a7_a0_proc_2
      + 1137.785603223072 pi_d_a0_a9_proc_2
      + 1153.214396776928 pi_d_a9_a0_proc_2
      + 1121.770056365960 pi_d_a1_a2_proc_2
      + 1097.877101528487 pi_d_a2_a1_proc_2
      + 1113.589294386772 pi_d_a1_a3_proc_2
      + 1114.583862284917 pi_d_a3_a1_proc_2 + 583.895015477206 pi_d_a1_a5_proc_2
      + 561.895326628411 pi_d_a5_a1_proc_2 + 607.062504943227 pi_d_a1_a6_proc_2
      + 610.499992990692 pi_d_a6_a1_proc_2 + 1157.862472266863 pi_d_a1_a7_proc_2
      + 1133.067644611905 pi_d_a7_a1_proc_2
      + 1157.999999999622 pi_d_a1_a9_proc_2
      + 1133.000000000378 pi_d_a9_a1_proc_2
      + 2234.832032272590 pi_d_a2_a3_proc_2
      + 1121.035522075633 pi_d_a2_a3_proc_1
      + 1259.898070620344 pi_d_a2_a3_proc_0
      + 2211.988282293545 pi_d_a3_a2_proc_2
      + 1098.191772096588 pi_d_a3_a2_proc_1
      + 1237.054320641298 pi_d_a3_a2_proc_0
      + 1086.206755538658 pi_d_a2_a4_proc_1
      + 1061.458586611544 pi_d_a4_a2_proc_1
      + 1691.812753385986 pi_d_a2_a5_proc_2
      + 2192.759816563734 pi_d_a2_a5_proc_1 + 725.709440208141 pi_d_a2_a5_proc_0
      + 1672.624746614079 pi_d_a5_a2_proc_2
      + 2173.571809791827 pi_d_a5_a2_proc_1 + 706.521433436233 pi_d_a5_a2_proc_0
      + 1718.006657634408 pi_d_a2_a6_proc_2
      + 1610.455698089081 pi_d_a2_a6_proc_1
      + 1252.743133437186 pi_d_a2_a6_proc_0
      + 1718.202998193958 pi_d_a6_a2_proc_2
      + 1610.652038648631 pi_d_a6_a2_proc_1
      + 1252.939473996736 pi_d_a6_a2_proc_0
      + 2261.631393277870 pi_d_a2_a7_proc_2 + 114.721447429554 pi_d_a2_a7_proc_0
      + 2247.945881495345 pi_d_a7_a2_proc_2 + 101.035935647029 pi_d_a7_a2_proc_0
      + 118.218738048593 pi_d_a2_a8_proc_0 + 97.468761906758 pi_d_a8_a2_proc_0
      + 2266.511078946845 pi_d_a2_a9_proc_2
      + 1116.956937498238 pi_d_a2_a9_proc_1
      + 1233.094483553781 pi_d_a2_a9_proc_0
      + 2243.136078947602 pi_d_a9_a2_proc_2
      + 1093.581937498995 pi_d_a9_a2_proc_1
      + 1209.719483554538 pi_d_a9_a2_proc_0 + 41.499726002337 pi_d_a3_a4_proc_1
      + 31.062226019683 pi_d_a4_a3_proc_1 + 1674.081761702914 pi_d_a3_a5_proc_2
      + 1133.214130427951 pi_d_a3_a5_proc_1
      + 1737.004144811918 pi_d_a3_a5_proc_0
      + 1698.881737074393 pi_d_a5_a3_proc_2
      + 1158.014105799429 pi_d_a5_a3_proc_1
      + 1761.804120183396 pi_d_a5_a3_proc_0
      + 1734.367528963336 pi_d_a3_a6_proc_2 + 585.001874965298 pi_d_a3_a6_proc_1
      + 2298.129701052963 pi_d_a3_a6_proc_0
      + 1710.368125642272 pi_d_a6_a3_proc_2 + 561.002471644233 pi_d_a6_a3_proc_1
      + 2274.130297731899 pi_d_a6_a3_proc_0
      + 2248.091976124415 pi_d_a3_a7_proc_2
      + 1130.207726562949 pi_d_a3_a7_proc_0
      + 2270.011297426041 pi_d_a7_a3_proc_2
      + 1152.127047864575 pi_d_a7_a3_proc_0
      + 1153.614368062061 pi_d_a3_a8_proc_0
      + 1128.650523244230 pi_d_a8_a3_proc_0
      + 2258.992566396713 pi_d_a3_a9_proc_2 + 67.623730495395 pi_d_a3_a9_proc_1
      + 2254.601667290498 pi_d_a3_a9_proc_0
      + 2259.180590274975 pi_d_a9_a3_proc_2 + 67.811754373657 pi_d_a9_a3_proc_1
      + 2254.789691168760 pi_d_a9_a3_proc_0
      + 1097.799064625408 pi_d_a4_a5_proc_1
      + 1121.867219579951 pi_d_a5_a4_proc_1 + 535.193497634396 pi_d_a4_a6_proc_1
      + 539.248896953115 pi_d_a6_a4_proc_1 + 25.779353969770 pi_d_a4_a9_proc_1
      + 38.094178877262 pi_d_a9_a4_proc_1 + 1193.302644515588 pi_d_a5_a6_proc_2
      + 1658.680563892255 pi_d_a5_a6_proc_1
      + 1765.895465079616 pi_d_a5_a6_proc_0
      + 1169.050195523949 pi_d_a6_a5_proc_2
      + 1634.428114900615 pi_d_a6_a5_proc_1
      + 1741.643016087977 pi_d_a6_a5_proc_0
      + 1722.330949427841 pi_d_a5_a7_proc_2 + 613.277348340776 pi_d_a5_a7_proc_0
      + 1713.389509556544 pi_d_a7_a5_proc_2 + 604.335908469479 pi_d_a7_a5_proc_0
      + 613.335495874270 pi_d_a5_a8_proc_0 + 604.207877814753 pi_d_a8_a5_proc_0
      + 1725.614109309943 pi_d_a5_a9_proc_2
      + 1148.988846783330 pi_d_a5_a9_proc_1
      + 1730.053858678129 pi_d_a5_a9_proc_0
      + 1710.176232795675 pi_d_a9_a5_proc_2
      + 1133.550970269062 pi_d_a9_a5_proc_1
      + 1714.615982163861 pi_d_a9_a5_proc_0
      + 1741.246307406544 pi_d_a6_a7_proc_2
      + 1133.032495300102 pi_d_a6_a7_proc_0
      + 1766.246307406143 pi_d_a7_a6_proc_2
      + 1158.032495299701 pi_d_a7_a6_proc_0
      + 1151.661588565031 pi_d_a6_a8_proc_0
      + 1139.333518913540 pi_d_a8_a6_proc_0
      + 1746.164500280402 pi_d_a6_a9_proc_2 + 561.041215030713 pi_d_a6_a9_proc_1
      + 2251.444038629211 pi_d_a6_a9_proc_0
      + 1761.397997653517 pi_d_a9_a6_proc_2 + 576.274712403829 pi_d_a9_a6_proc_1
      + 2266.677536002327 pi_d_a9_a6_proc_0 + 2.630128785481 pi_d_a7_a8_proc_0
      - 1.560245664248 pi_d_a8_a7_proc_0 + 2290.571879528683 pi_d_a7_a9_proc_2
      + 1114.204996226400 pi_d_a7_a9_proc_0
      + 2290.358237350084 pi_d_a9_a7_proc_2
      + 1113.991354047801 pi_d_a9_a7_proc_0
      + 1101.676777619521 pi_d_a8_a9_proc_0
      + 1126.449689533447 pi_d_a9_a8_proc_0 + pi_y2_a0_proc_2 + pi_y2_a1_proc_2
      + 0.906250000019 pi_y2_a2_proc_0 + 0.062591553646 pi_y2_a2_proc_1
      + 0.031158446334 pi_y2_a2_proc_2 + 0.003814457945 pi_y2_a3_proc_0
      + 0.968750239292 pi_y2_a3_proc_1 + 0.027435302763 pi_y2_a3_proc_2
      + pi_y2_a4_proc_1 + 0.468758352101 pi_y2_a5_proc_0
      + 0.031150094233 pi_y2_a5_proc_1 + 0.500091553666 pi_y2_a5_proc_2
      + 0.000002136472 pi_y2_a6_proc_0 + 0.531247862626 pi_y2_a6_proc_1
      + 0.468750000902 pi_y2_a6_proc_2 + 0.999969483353 pi_y2_a7_proc_0
      + 0.000030516647 pi_y2_a7_proc_2 + pi_y2_a8_proc_0
      + 0.027455691200 pi_y2_a9_proc_0 + 0.972544308800 pi_y2_a9_proc_1
      + 0.000000000000 pi_y2_a9_proc_2
Subject To
 c1: 0.000946969697 pi_nr_a0 + 0.001317523057 pi_nr_a1 + 0.000903342367 pi_nr_a2
     + 0.001319261214 pi_nr_a3 + 0.000962463908 pi_nr_a4
     + 0.002155172414 pi_nr_a5 + 0.001066098081 pi_nr_a6
     + 0.000892060660 pi_nr_a7 + 0.001024590164 pi_nr_a8
     + 0.001077586207 pi_nr_a9 + pi_p_a5_a6 + pi_p_a9_a3 + pi_p_a5_a5
     + pi_d_a1_a0_proc_2 + 1133 pi_d_a0_a2_proc_2 + 1158 pi_d_a2_a0_proc_2
     + 1133 pi_d_a0_a3_proc_2 + 1158 pi_d_a3_a0_proc_2 + 10 pi_d_a0_a5_proc_2
     - 9 pi_d_a5_a0_proc_2 + 1158 pi_d_a0_a6_proc_2 + 1133 pi_d_a6_a0_proc_2
     + 1158 pi_d_a0_a7_proc_2 + 1133 pi_d_a7_a0_proc_2 + 1133 pi_d_a0_a9_proc_2
     + 1158 pi_d_a9_a0_proc_2 + 1158 pi_d_a1_a2_proc_2 + 1133 pi_d_a2_a1_proc_2
     + 1133 pi_d_a1_a3_proc_2 + 1158 pi_d_a3_a1_proc_2 + 10 pi_d_a1_a5_proc_2
     - 9 pi_d_a5_a1_proc_2 + 1133 pi_d_a1_a6_proc_2 + 1158 pi_d_a6_a1_proc_2
     + 1158 pi_d_a1_a7_proc_2 + 1133 pi_d_a7_a1_proc_2 + 1158 pi_d_a1_a9_proc_2
     + 1133 pi_d_a9_a1_proc_2 + 2303 pi_d_a2_a3_proc_2 + 1158 pi_d_a2_a3_proc_1
     + 1158 pi_d_a2_a3_proc_0 + 2278 pi_d_a3_a2_proc_2 + 1133 pi_d_a3_a2_proc_1
     + 1133 pi_d_a3_a2_proc_0 + 1158 pi_d_a2_a4_proc_1 + 1133 pi_d_a4_a2_proc_1
     + 1158 pi_d_a2_a5_proc_2 + 2303 pi_d_a2_a5_proc_1 + 1158 pi_d_a2_a5_proc_0
     + 1133 pi_d_a5_a2_proc_2 + 2278 pi_d_a5_a2_proc_1 + 1133 pi_d_a5_a2_proc_0
     + 2278 pi_d_a2_a6_proc_2 + 1133 pi_d_a2_a6_proc_1 + 1133 pi_d_a2_a6_proc_0
     + 2303 pi_d_a6_a2_proc_2 + 1158 pi_d_a6_a2_proc_1 + 1158 pi_d_a6_a2_proc_0
     + 2298 pi_d_a2_a7_proc_2 + 8 pi_d_a2_a7_proc_0 + 2283 pi_d_a7_a2_proc_2
     - 7 pi_d_a7_a2_proc_0 + 12 pi_d_a2_a8_proc_0 - 11 pi_d_a8_a2_proc_0
     + 2303 pi_d_a2_a9_proc_2 + 1158 pi_d_a2_a9_proc_1 + 1158 pi_d_a2_a9_proc_0
     + 2278 pi_d_a9_a2_proc_2 + 1133 pi_d_a9_a2_proc_1 + 1133 pi_d_a9_a2_proc_0
     + 5 pi_d_a3_a4_proc_1 - 4 pi_d_a4_a3_proc_1 + 1133 pi_d_a3_a5_proc_2
     + 1133 pi_d_a3_a5_proc_1 + 2278 pi_d_a3_a5_proc_0 + 1158 pi_d_a5_a3_proc_2
     + 1158 pi_d_a5_a3_proc_1 + 2303 pi_d_a5_a3_proc_0 + 2302 pi_d_a3_a6_proc_2
     + 12 pi_d_a3_a6_proc_1 + 2302 pi_d_a3_a6_proc_0 + 2279 pi_d_a6_a3_proc_2
     - 11 pi_d_a6_a3_proc_1 + 2279 pi_d_a6_a3_proc_0 + 2278 pi_d_a3_a7_proc_2
     + 1133 pi_d_a3_a7_proc_0 + 2303 pi_d_a7_a3_proc_2 + 1158 pi_d_a7_a3_proc_0
     + 1158 pi_d_a3_a8_proc_0 + 1133 pi_d_a8_a3_proc_0 + 2290 pi_d_a3_a9_proc_2
     + 2290 pi_d_a3_a9_proc_0 + 2291 pi_d_a9_a3_proc_2 + pi_d_a9_a3_proc_1
     + 2291 pi_d_a9_a3_proc_0 + 1133 pi_d_a4_a5_proc_1 + 1158 pi_d_a5_a4_proc_1
     + 8 pi_d_a4_a6_proc_1 - 7 pi_d_a6_a4_proc_1 - 5 pi_d_a4_a9_proc_1
     + 6 pi_d_a9_a4_proc_1 + 1158 pi_d_a5_a6_proc_2 + 1158 pi_d_a5_a6_proc_1
     + 2303 pi_d_a5_a6_proc_0 + 1133 pi_d_a6_a5_proc_2 + 1133 pi_d_a6_a5_proc_1
     + 2278 pi_d_a6_a5_proc_0 + 1158 pi_d_a5_a7_proc_2 + 1158 pi_d_a5_a7_proc_0
     + 1133 pi_d_a7_a5_proc_2 + 1133 pi_d_a7_a5_proc_0 + 1158 pi_d_a5_a8_proc_0
     + 1133 pi_d_a8_a5_proc_0 + 1158 pi_d_a5_a9_proc_2 + 1158 pi_d_a5_a9_proc_1
     + 2303 pi_d_a5_a9_proc_0 + 1133 pi_d_a9_a5_proc_2 + 1133 pi_d_a9_a5_proc_1
     + 2278 pi_d_a9_a5_proc_0 + 2278 pi_d_a6_a7_proc_2 + 1133 pi_d_a6_a7_proc_0
     + 2303 pi_d_a7_a6_proc_2 + 1158 pi_d_a7_a6_proc_0 + 1158 pi_d_a6_a8_proc_0
     + 1133 pi_d_a8_a6_proc_0 + 2278 pi_d_a6_a9_proc_2 - 12 pi_d_a6_a9_proc_1
     + 2278 pi_d_a6_a9_proc_0 + 2303 pi_d_a9_a6_proc_2 + 13 pi_d_a9_a6_proc_1
     + 2303 pi_d_a9_a6_proc_0 + 5 pi_d_a7_a8_proc_0 - 4 pi_d_a8_a7_proc_0
     + 2303 pi_d_a7_a9_proc_2 + 1158 pi_d_a7_a9_proc_0 + 2278 pi_d_a9_a7_proc_2
     + 1133 pi_d_a9_a7_proc_0 + 1133 pi_d_a8_a9_proc_0 + 1158 pi_d_a9_a8_proc_0
     + pi_y2_a0_proc_2 + pi_y2_a1_proc_2 + pi_y2_a2_proc_0 + pi_y2_a3_proc_1
     + pi_y2_a4_proc_1 + pi_y2_a5_proc_2 + pi_y2_a6_proc_1 + pi_y2_a7_proc_0
     + pi_y2_a8_proc_0 + pi_y2_a9_proc_1 = 0.000273000273
 c2: pi_nr_a0 + pi_nr_a1 + pi_nr_a2 + pi_nr_a3 + pi_nr_a4 + pi_nr_a5 + pi_nr_a6
     + pi_nr_a7 + pi_nr_a8 + pi_nr_a9 - pi_y1_a0 - pi_y1_a1 - pi_y1_a2
     - pi_y1_a3 - pi_y1_a4 - pi_y1_a5 - pi_y1_a6 - pi_y1_a7 - pi_y1_a8
     - pi_y1_a9 >= 1
 c3: pi_p_a0_a1 + pi_d_a0_a1_proc_2 - pi_d_a1_a0_proc_2 + pi_d_a0_a2_proc_2
     - pi_d_a2_a0_proc_2 + pi_d_a0_a3_proc_2 - pi_d_a3_a0_proc_2
     + pi_d_a0_a5_proc_2 - pi_d_a5_a0_proc_2 + pi_d_a0_a6_proc_2
     - pi_d_a6_a0_proc_2 + pi_d_a0_a7_proc_2 - pi_d_a7_a0_proc_2
     + pi_d_a0_a9_proc_2 - pi_d_a9_a0_proc_2 >= 0
 c4: 1056 pi_p_a0_a1 + 1056 pi_d_a0_a1_proc_2 + 1056 pi_d_a0_a2_proc_2
     + 1056 pi_d_a0_a3_proc_2 + 1056 pi_d_a0_a5_proc_2 + 1056 pi_d_a0_a6_proc_2
     + 1056 pi_d_a0_a7_proc_2 + 1056 pi_d_a0_a9_proc_2 + pi_y1_a0
     + pi_y2_a0_proc_2 >= 0
 c5: - pi_p_a0_a1 + pi_p_a1_a2 - pi_p_a4_a1 - pi_p_a5_a1 - pi_d_a0_a1_proc_2
     + pi_d_a1_a0_proc_2 + pi_d_a1_a2_proc_2 - pi_d_a2_a1_proc_2
     + pi_d_a1_a3_proc_2 - pi_d_a3_a1_proc_2 + pi_d_a1_a5_proc_2
     - pi_d_a5_a1_proc_2 + pi_d_a1_a6_proc_2 - pi_d_a6_a1_proc_2
     + pi_d_a1_a7_proc_2 - pi_d_a7_a1_proc_2 + pi_d_a1_a9_proc_2
     - pi_d_a9_a1_proc_2 >= 0
 c6: 759 pi_p_a1_a2 + 759 pi_d_a1_a0_proc_2 + 759 pi_d_a1_a2_proc_2
     + 759 pi_d_a1_a3_proc_2 + 759 pi_d_a1_a5_proc_2 + 759 pi_d_a1_a6_proc_2
     + 759 pi_d_a1_a7_proc_2 + 759 pi_d_a1_a9_proc_2 + pi_y1_a1
     + pi_y2_a1_proc_2 >= 0
 c7: - pi_p_a1_a2 - pi_p_a3_a2 + pi_p_a2_a9 - pi_d_a0_a2_proc_2
     + pi_d_a2_a0_proc_2 - pi_d_a1_a2_proc_2 + pi_d_a2_a1_proc_2
     + pi_d_a2_a3_proc_2 + pi_d_a2_a3_proc_1 + pi_d_a2_a3_proc_0
     - pi_d_a3_a2_proc_2 - pi_d_a3_a2_proc_1 - pi_d_a3_a2_proc_0
     + pi_d_a2_a4_proc_1 - pi_d_a4_a2_proc_1 + pi_d_a2_a5_proc_2
     + pi_d_a2_a5_proc_1 + pi_d_a2_a5_proc_0 - pi_d_a5_a2_proc_2
     - pi_d_a5_a2_proc_1 - pi_d_a5_a2_proc_0 + pi_d_a2_a6_proc_2
     + pi_d_a2_a6_proc_1 + pi_d_a2_a6_proc_0 - pi_d_a6_a2_proc_2
     - pi_d_a6_a2_proc_1 - pi_d_a6_a2_proc_0 + pi_d_a2_a7_proc_2
     + pi_d_a2_a7_proc_0 - pi_d_a7_a2_proc_2 - pi_d_a7_a2_proc_0
     + pi_d_a2_a8_proc_0 - pi_d_a8_a2_proc_0 + pi_d_a2_a9_proc_2
     + pi_d_a2_a9_proc_1 + pi_d_a2_a9_proc_0 - pi_d_a9_a2_proc_2
     - pi_d_a9_a2_proc_1 - pi_d_a9_a2_proc_0 >= 0
 c8: 1107 pi_p_a2_a9 + 1107 pi_d_a2_a3_proc_0 + 1107 pi_d_a2_a5_proc_0
     + 1107 pi_d_a2_a6_proc_0 + 1107 pi_d_a2_a7_proc_0 + 1107 pi_d_a2_a8_proc_0
     + 1107 pi_d_a2_a9_proc_0 + pi_y1_a2 + pi_y2_a2_proc_0 >= 0
 c9: 760 pi_p_a2_a9 + 760 pi_d_a2_a3_proc_1 + 760 pi_d_a2_a4_proc_1
     + 760 pi_d_a2_a5_proc_1 + 760 pi_d_a2_a6_proc_1 + 760 pi_d_a2_a9_proc_1
     + pi_y1_a2 + pi_y2_a2_proc_1 >= 0
 c10: 630 pi_p_a2_a9 + 630 pi_d_a2_a0_proc_2 + 630 pi_d_a2_a1_proc_2
      + 630 pi_d_a2_a3_proc_2 + 630 pi_d_a2_a5_proc_2 + 630 pi_d_a2_a6_proc_2
      + 630 pi_d_a2_a7_proc_2 + 630 pi_d_a2_a9_proc_2 + pi_y1_a2
      + pi_y2_a2_proc_2 >= 0
 c11: pi_p_a3_a2 - pi_p_a9_a3 - pi_d_a0_a3_proc_2 + pi_d_a3_a0_proc_2
      - pi_d_a1_a3_proc_2 + pi_d_a3_a1_proc_2 - pi_d_a2_a3_proc_2
      - pi_d_a2_a3_proc_1 - pi_d_a2_a3_proc_0 + pi_d_a3_a2_proc_2
      + pi_d_a3_a2_proc_1 + pi_d_a3_a2_proc_0 + pi_d_a3_a4_proc_1
      - pi_d_a4_a3_proc_1 + pi_d_a3_a5_proc_2 + pi_d_a3_a5_proc_1
      + pi_d_a3_a5_proc_0 - pi_d_a5_a3_proc_2 - pi_d_a5_a3_proc_1
      - pi_d_a5_a3_proc_0 + pi_d_a3_a6_proc_2 + pi_d_a3_a6_proc_1
      + pi_d_a3_a6_proc_0 - pi_d_a6_a3_proc_2 - pi_d_a6_a3_proc_1
      - pi_d_a6_a3_proc_0 + pi_d_a3_a7_proc_2 + pi_d_a3_a7_proc_0
      - pi_d_a7_a3_proc_2 - pi_d_a7_a3_proc_0 + pi_d_a3_a8_proc_0
      - pi_d_a8_a3_proc_0 + pi_d_a3_a9_proc_2 + pi_d_a3_a9_proc_1
      + pi_d_a3_a9_proc_0 - pi_d_a9_a3_proc_2 - pi_d_a9_a3_proc_1
      - pi_d_a9_a3_proc_0 >= 0
 c12: 871 pi_p_a3_a2 + 871 pi_d_a3_a2_proc_0 + 871 pi_d_a3_a5_proc_0
      + 871 pi_d_a3_a6_proc_0 + 871 pi_d_a3_a7_proc_0 + 871 pi_d_a3_a8_proc_0
      + 871 pi_d_a3_a9_proc_0 + pi_y1_a3 + pi_y2_a3_proc_0 >= 0
 c13: 758 pi_p_a3_a2 + 758 pi_d_a3_a2_proc_1 + 758 pi_d_a3_a4_proc_1
      + 758 pi_d_a3_a5_proc_1 + 758 pi_d_a3_a6_proc_1 + 758 pi_d_a3_a9_proc_1
      + pi_y1_a3 + pi_y2_a3_proc_1 >= 0
 c14: 892 pi_p_a3_a2 + 892 pi_d_a3_a0_proc_2 + 892 pi_d_a3_a1_proc_2
      + 892 pi_d_a3_a2_proc_2 + 892 pi_d_a3_a5_proc_2 + 892 pi_d_a3_a6_proc_2
      + 892 pi_d_a3_a7_proc_2 + 892 pi_d_a3_a9_proc_2 + pi_y1_a3
      + pi_y2_a3_proc_2 >= 0
 c15: pi_p_a4_a1 - pi_p_a7_a4 - pi_p_a8_a4 - pi_p_a6_a4 - pi_d_a2_a4_proc_1
      + pi_d_a4_a2_proc_1 - pi_d_a3_a4_proc_1 + pi_d_a4_a3_proc_1
      + pi_d_a4_a5_proc_1 - pi_d_a5_a4_proc_1 + pi_d_a4_a6_proc_1
      - pi_d_a6_a4_proc_1 + pi_d_a4_a9_proc_1 - pi_d_a9_a4_proc_1 >= 0
 c16: 1039 pi_p_a4_a1 + 1039 pi_d_a4_a2_proc_1 + 1039 pi_d_a4_a3_proc_1
      + 1039 pi_d_a4_a5_proc_1 + 1039 pi_d_a4_a6_proc_1 + 1039 pi_d_a4_a9_proc_1
      + pi_y1_a4 + pi_y2_a4_proc_1 >= 0
 c17: pi_p_a5_a1 + pi_p_a5_a6 - pi_p_a6_a5 - pi_d_a0_a5_proc_2
      + pi_d_a5_a0_proc_2 - pi_d_a1_a5_proc_2 + pi_d_a5_a1_proc_2
      - pi_d_a2_a5_proc_2 - pi_d_a2_a5_proc_1 - pi_d_a2_a5_proc_0
      + pi_d_a5_a2_proc_2 + pi_d_a5_a2_proc_1 + pi_d_a5_a2_proc_0
      - pi_d_a3_a5_proc_2 - pi_d_a3_a5_proc_1 - pi_d_a3_a5_proc_0
      + pi_d_a5_a3_proc_2 + pi_d_a5_a3_proc_1 + pi_d_a5_a3_proc_0
      - pi_d_a4_a5_proc_1 + pi_d_a5_a4_proc_1 + pi_d_a5_a6_proc_2
      + pi_d_a5_a6_proc_1 + pi_d_a5_a6_proc_0 - pi_d_a6_a5_proc_2
      - pi_d_a6_a5_proc_1 - pi_d_a6_a5_proc_0 + pi_d_a5_a7_proc_2
      + pi_d_a5_a7_proc_0 - pi_d_a7_a5_proc_2 - pi_d_a7_a5_proc_0
      + pi_d_a5_a8_proc_0 - pi_d_a8_a5_proc_0 + pi_d_a5_a9_proc_2
      + pi_d_a5_a9_proc_1 + pi_d_a5_a9_proc_0 - pi_d_a9_a5_proc_2
      - pi_d_a9_a5_proc_1 - pi_d_a9_a5_proc_0 >= 0
 c18: 1108 pi_p_a5_a1 + 1108 pi_p_a5_a6 + 1108 pi_p_a5_a5
      + 1108 pi_d_a5_a2_proc_0 + 1108 pi_d_a5_a3_proc_0 + 1108 pi_d_a5_a6_proc_0
      + 1108 pi_d_a5_a7_proc_0 + 1108 pi_d_a5_a8_proc_0 + 1108 pi_d_a5_a9_proc_0
      + pi_y1_a5 + pi_y2_a5_proc_0 >= 0
 c19: 410 pi_p_a5_a1 + 410 pi_p_a5_a6 + 410 pi_p_a5_a5 + 410 pi_d_a5_a2_proc_1
      + 410 pi_d_a5_a3_proc_1 + 410 pi_d_a5_a4_proc_1 + 410 pi_d_a5_a6_proc_1
      + 410 pi_d_a5_a9_proc_1 + pi_y1_a5 + pi_y2_a5_proc_1 >= 0
 c20: 464 pi_p_a5_a1 + 464 pi_p_a5_a6 + 464 pi_p_a5_a5 + 464 pi_d_a5_a0_proc_2
      + 464 pi_d_a5_a1_proc_2 + 464 pi_d_a5_a2_proc_2 + 464 pi_d_a5_a3_proc_2
      + 464 pi_d_a5_a6_proc_2 + 464 pi_d_a5_a7_proc_2 + 464 pi_d_a5_a9_proc_2
      + pi_y1_a5 + pi_y2_a5_proc_2 >= 0
 c21: - pi_p_a5_a6 + pi_p_a6_a7 + pi_p_a6_a5 + pi_p_a6_a4 - pi_d_a0_a6_proc_2
      + pi_d_a6_a0_proc_2 - pi_d_a1_a6_proc_2 + pi_d_a6_a1_proc_2
      - pi_d_a2_a6_proc_2 - pi_d_a2_a6_proc_1 - pi_d_a2_a6_proc_0
      + pi_d_a6_a2_proc_2 + pi_d_a6_a2_proc_1 + pi_d_a6_a2_proc_0
      - pi_d_a3_a6_proc_2 - pi_d_a3_a6_proc_1 - pi_d_a3_a6_proc_0
      + pi_d_a6_a3_proc_2 + pi_d_a6_a3_proc_1 + pi_d_a6_a3_proc_0
      - pi_d_a4_a6_proc_1 + pi_d_a6_a4_proc_1 - pi_d_a5_a6_proc_2
      - pi_d_a5_a6_proc_1 - pi_d_a5_a6_proc_0 + pi_d_a6_a5_proc_2
      + pi_d_a6_a5_proc_1 + pi_d_a6_a5_proc_0 + pi_d_a6_a7_proc_2
      + pi_d_a6_a7_proc_0 - pi_d_a7_a6_proc_2 - pi_d_a7_a6_proc_0
      + pi_d_a6_a8_proc_0 - pi_d_a8_a6_proc_0 + pi_d_a6_a9_proc_2
      + pi_d_a6_a9_proc_1 + pi_d_a6_a9_proc_0 - pi_d_a9_a6_proc_2
      - pi_d_a9_a6_proc_1 - pi_d_a9_a6_proc_0 >= 0
 c22: 973 pi_p_a6_a7 + 973 pi_p_a6_a5 + 973 pi_p_a6_a4 + 973 pi_d_a6_a2_proc_0
      + 973 pi_d_a6_a3_proc_0 + 973 pi_d_a6_a5_proc_0 + 973 pi_d_a6_a7_proc_0
      + 973 pi_d_a6_a8_proc_0 + 973 pi_d_a6_a9_proc_0 + pi_y1_a6
      + pi_y2_a6_proc_0 >= 0
 c23: 938 pi_p_a6_a7 + 938 pi_p_a6_a5 + 938 pi_p_a6_a4 + 938 pi_d_a6_a2_proc_1
      + 938 pi_d_a6_a3_proc_1 + 938 pi_d_a6_a4_proc_1 + 938 pi_d_a6_a5_proc_1
      + 938 pi_d_a6_a9_proc_1 + pi_y1_a6 + pi_y2_a6_proc_1 >= 0
 c24: 911 pi_p_a6_a7 + 911 pi_p_a6_a5 + 911 pi_p_a6_a4 + 911 pi_d_a6_a0_proc_2
      + 911 pi_d_a6_a1_proc_2 + 911 pi_d_a6_a2_proc_2 + 911 pi_d_a6_a3_proc_2
      + 911 pi_d_a6_a5_proc_2 + 911 pi_d_a6_a7_proc_2 + 911 pi_d_a6_a9_proc_2
      + pi_y1_a6 + pi_y2_a6_proc_2 >= 0
 c25: pi_p_a7_a4 - pi_p_a6_a7 - pi_d_a0_a7_proc_2 + pi_d_a7_a0_proc_2
      - pi_d_a1_a7_proc_2 + pi_d_a7_a1_proc_2 - pi_d_a2_a7_proc_2
      - pi_d_a2_a7_proc_0 + pi_d_a7_a2_proc_2 + pi_d_a7_a2_proc_0
      - pi_d_a3_a7_proc_2 - pi_d_a3_a7_proc_0 + pi_d_a7_a3_proc_2
      + pi_d_a7_a3_proc_0 - pi_d_a5_a7_proc_2 - pi_d_a5_a7_proc_0
      + pi_d_a7_a5_proc_2 + pi_d_a7_a5_proc_0 - pi_d_a6_a7_proc_2
      - pi_d_a6_a7_proc_0 + pi_d_a7_a6_proc_2 + pi_d_a7_a6_proc_0
      + pi_d_a7_a8_proc_0 - pi_d_a8_a7_proc_0 + pi_d_a7_a9_proc_2
      + pi_d_a7_a9_proc_0 - pi_d_a9_a7_proc_2 - pi_d_a9_a7_proc_0 >= 0
 c26: 1121 pi_p_a7_a4 + 1121 pi_d_a7_a2_proc_0 + 1121 pi_d_a7_a3_proc_0
      + 1121 pi_d_a7_a5_proc_0 + 1121 pi_d_a7_a6_proc_0 + 1121 pi_d_a7_a8_proc_0
      + 1121 pi_d_a7_a9_proc_0 + pi_y1_a7 + pi_y2_a7_proc_0 >= 0
 c27: 789 pi_p_a7_a4 + 789 pi_d_a7_a0_proc_2 + 789 pi_d_a7_a1_proc_2
      + 789 pi_d_a7_a2_proc_2 + 789 pi_d_a7_a3_proc_2 + 789 pi_d_a7_a5_proc_2
      + 789 pi_d_a7_a6_proc_2 + 789 pi_d_a7_a9_proc_2 + pi_y1_a7
      + pi_y2_a7_proc_2 >= 0
 c28: pi_p_a8_a4 + pi_p_a8_a9 - pi_d_a2_a8_proc_0 + pi_d_a8_a2_proc_0
      - pi_d_a3_a8_proc_0 + pi_d_a8_a3_proc_0 - pi_d_a5_a8_proc_0
      + pi_d_a8_a5_proc_0 - pi_d_a6_a8_proc_0 + pi_d_a8_a6_proc_0
      - pi_d_a7_a8_proc_0 + pi_d_a8_a7_proc_0 + pi_d_a8_a9_proc_0
      - pi_d_a9_a8_proc_0 >= 0
 c29: 976 pi_p_a8_a4 + 976 pi_p_a8_a9 + 976 pi_d_a8_a2_proc_0
      + 976 pi_d_a8_a3_proc_0 + 976 pi_d_a8_a5_proc_0 + 976 pi_d_a8_a6_proc_0
      + 976 pi_d_a8_a7_proc_0 + 976 pi_d_a8_a9_proc_0 + pi_y1_a8
      + pi_y2_a8_proc_0 >= 0
 c30: pi_p_a9_a3 - pi_p_a2_a9 - pi_p_a8_a9 - pi_d_a0_a9_proc_2
      + pi_d_a9_a0_proc_2 - pi_d_a1_a9_proc_2 + pi_d_a9_a1_proc_2
      - pi_d_a2_a9_proc_2 - pi_d_a2_a9_proc_1 - pi_d_a2_a9_proc_0
      + pi_d_a9_a2_proc_2 + pi_d_a9_a2_proc_1 + pi_d_a9_a2_proc_0
      - pi_d_a3_a9_proc_2 - pi_d_a3_a9_proc_1 - pi_d_a3_a9_proc_0
      + pi_d_a9_a3_proc_2 + pi_d_a9_a3_proc_1 + pi_d_a9_a3_proc_0
      - pi_d_a4_a9_proc_1 + pi_d_a9_a4_proc_1 - pi_d_a5_a9_proc_2
      - pi_d_a5_a9_proc_1 - pi_d_a5_a9_proc_0 + pi_d_a9_a5_proc_2
      + pi_d_a9_a5_proc_1 + pi_d_a9_a5_proc_0 - pi_d_a6_a9_proc_2
      - pi_d_a6_a9_proc_1 - pi_d_a6_a9_proc_0 + pi_d_a9_a6_proc_2
      + pi_d_a9_a6_proc_1 + pi_d_a9_a6_proc_0 - pi_d_a7_a9_proc_2
      - pi_d_a7_a9_proc_0 + pi_d_a9_a7_proc_2 + pi_d_a9_a7_proc_0
      - pi_d_a8_a9_proc_0 + pi_d_a9_a8_proc_0 >= 0
 c31: 543 pi_p_a9_a3 + 543 pi_d_a9_a2_proc_0 + 543 pi_d_a9_a3_proc_0
      + 543 pi_d_a9_a5_proc_0 + 543 pi_d_a9_a6_proc_0 + 543 pi_d_a9_a7_proc_0
      + 543 pi_d_a9_a8_proc_0 + pi_y1_a9 + pi_y2_a9_proc_0 >= 0
 c32: 928 pi_p_a9_a3 + 928 pi_d_a9_a2_proc_1 + 928 pi_d_a9_a3_proc_1
      + 928 pi_d_a9_a4_proc_1 + 928 pi_d_a9_a5_proc_1 + 928 pi_d_a9_a6_proc_1
      + pi_y1_a9 + pi_y2_a9_proc_1 >= 0
 c33: 1145 pi_p_a9_a3 + 1145 pi_d_a9_a0_proc_2 + 1145 pi_d_a9_a1_proc_2
      + 1145 pi_d_a9_a2_proc_2 + 1145 pi_d_a9_a3_proc_2 + 1145 pi_d_a9_a5_proc_2
      + 1145 pi_d_a9_a6_proc_2 + 1145 pi_d_a9_a7_proc_2 + pi_y1_a9
      + pi_y2_a9_proc_2 >= 0

Bounds
       pi_y1_a0 Free
       pi_y1_a1 Free
       pi_y1_a2 Free
       pi_y1_a3 Free
       pi_y1_a4 Free
       pi_y1_a5 Free
       pi_y1_a6 Free
       pi_y1_a7 Free
       pi_y1_a8 Free
       pi_y1_a9 Free
End
