benchmark/results/graph__10-1000-0.10-03_19/graph__10-1000-0.10-03_19_QuintonOs_Benders_aux.txt
solution for: Quinton Bounded Benders_auxiliary_sub
objective: 0.443619
status: OPTIMAL_SOLUTION(2)
pi_p_a9_a3=0.000
pi_d_a3_a6_proc_1=0.000
pi_d_a6_a4_proc_1=0.000
pi_d_a4_a9_proc_1=0.000
pi_y1_a3=-0.207
pi_y1_a4=-0.284
pi_y1_a6=-0.256
pi_y1_a9=-0.253
pi_y2_a3_proc_0=0.207
pi_y2_a3_proc_2=0.207
pi_y2_a6_proc_0=0.256
pi_y2_a6_proc_2=0.256
pi_y2_a9_proc_0=0.105
